
******************************************************************************
This program contains Ipopt, a library for large-scale nonlinear optimization.
 Ipopt is released as open source code under the Eclipse Public License (EPL).
         For more information visit http://projects.coin-or.org/Ipopt

This version of Ipopt was compiled from source code available at
    https://github.com/IDAES/Ipopt as part of the Institute for the Design of
    Advanced Energy Systems Process Systems Engineering Framework (IDAES PSE
    Framework) Copyright (c) 2018-2019. See https://github.com/IDAES/idaes-pse.

This version of Ipopt was compiled using HSL, a collection of Fortran codes
    for large-scale scientific computation.  All technical papers, sales and
    publicity material resulting from use of the HSL codes within IPOPT must
    contain the following acknowledgement:
        HSL, a collection of Fortran codes for large-scale scientific
        computation. See http://www.hsl.rl.ac.uk.
******************************************************************************

This is Ipopt version 3.13.2, running with linear solver ma27.

Number of nonzeros in equality constraint Jacobian...:     1210
Number of nonzeros in inequality constraint Jacobian.:        0
Number of nonzeros in Lagrangian Hessian.............:     1376

Total number of variables............................:      480
                     variables with only lower bounds:      128
                variables with lower and upper bounds:      288
                     variables with only upper bounds:        0
Total number of equality constraints.................:      477
Total number of inequality constraints...............:        0
        inequality constraints with only lower bounds:        0
   inequality constraints with lower and upper bounds:        0
        inequality constraints with only upper bounds:        0

iter    objective    inf_pr   inf_du lg(mu)  ||d||  lg(rg) alpha_du alpha_pr  ls
   0  0.0000000e+00 8.01e-01 1.93e-14  -1.0 0.00e+00    -  0.00e+00 0.00e+00   0
   1  2.0374850e+01 6.49e-01 3.68e+06  -1.0 9.64e+05    -  1.29e-01 4.42e-01h  2
   2  2.2237031e+01 6.40e-01 3.64e+06  -1.0 2.91e+06    -  1.75e-01 1.39e-02h  6
   3  3.3820656e+01 8.79e-01 3.66e+06  -1.0 3.05e+06    -  1.78e-01 6.53e-02h  4
   4  6.6847498e+01 7.67e-01 3.85e+06  -1.0 2.70e+06    -  2.41e-01 1.31e-01h  3
   5  1.2220479e+02 9.65e-01 3.65e+06  -1.0 2.51e+06    -  3.63e-01 1.50e-01h  3
   6  1.8597688e+02 8.14e-01 3.15e+06  -1.0 1.86e+06    -  4.79e-01 1.57e-01h  3
   7  3.2488971e+02 6.59e-01 2.04e+06  -1.0 1.24e+06    -  5.33e-01 3.35e-01h  2
   8  3.6443822e+02 1.39e+00 1.28e+06  -1.0 4.39e+05    -  7.86e-01 2.07e-01h  3
   9  4.0730440e+02 1.61e+00 2.21e+06  -1.0 3.10e+05    -  9.19e-01 4.95e-01h  2
iter    objective    inf_pr   inf_du lg(mu)  ||d||  lg(rg) alpha_du alpha_pr  ls
  10  4.0080196e+02 1.72e+00 1.85e+06  -1.0 5.36e+05    -  8.15e-01 2.47e-01f  3
  11  3.1344772e+02 5.72e-01 8.48e+05  -1.0 6.23e+05    -  7.93e-01 9.90e-01f  1
  12  3.1393058e+02 5.11e+00 5.30e+06  -1.0 1.11e+05  -4.0 7.29e-01 9.90e-01h  1
  13  3.1504096e+02 5.11e+00 5.30e+06  -1.0 1.66e+07    -  2.76e-02 3.28e-04h 10
  14r 3.1504096e+02 5.11e+00 1.00e+03   0.7 0.00e+00    -  0.00e+00 4.58e-07R 17
  15r 3.1503905e+02 1.63e+00 9.94e+02   0.7 5.76e+03    -  7.11e-03 8.85e-03f  1
  16  2.6982950e+02 4.90e-01 1.05e+03  -1.0 3.54e+05    -  7.24e-01 9.90e-01f  1
  17  2.4625242e+02 5.52e+00 4.55e+02  -1.0 2.36e+05    -  9.90e-01 9.90e-01f  1
  18  2.4211304e+02 4.57e-01 6.40e+06  -1.0 9.41e+04  -4.5 7.02e-01 9.90e-01h  1
  19  2.4233764e+02 4.29e-01 2.04e+09  -1.0 7.43e+04  -5.0 9.86e-01 6.19e-02h  5
iter    objective    inf_pr   inf_du lg(mu)  ||d||  lg(rg) alpha_du alpha_pr  ls
  20  2.4238248e+02 4.23e-01 4.32e+09  -1.0 9.66e+04  -5.4 1.00e+00 1.55e-02h  7
  21  2.4536171e+02 3.76e-01 5.97e+09  -1.0 5.80e+05  -5.9 1.00e+00 1.11e-01h  4
  22  2.5395669e+02 3.36e-01 7.72e+09  -1.0 5.17e+05  -6.4 1.00e+00 1.09e-01h  4
  23  2.5593257e+02 2.53e-01 8.08e+09  -1.0 8.36e+04  -6.0 1.00e+00 2.47e-01h  3
  24  2.5595564e+02 2.52e-01 1.20e+10  -1.0 5.31e+04  -4.6 1.00e+00 7.73e-03h  8
  25  2.5608718e+02 2.67e-01 1.21e+10  -1.0 5.26e+04  -3.3 1.00e+00 2.47e-01h  3
  26  2.5697007e+02 2.01e-01 1.31e+10  -1.0 3.67e+04  -3.8 1.00e+00 2.47e-01h  3
  27  2.5775498e+02 2.22e-01 1.53e+10  -1.0 2.24e+04  -4.3 1.00e+00 2.47e-01h  3
  28  2.5923763e+02 9.01e-02 2.48e+08  -1.0 1.10e+04  -4.7 1.00e+00 9.90e-01h  1
  29  2.5330048e+02 1.21e-03 9.49e+09  -1.0 5.61e+04    -  1.00e+00 9.90e-01H  1
In iteration 29, 32 Slacks too small, adjusting variable bounds
iter    objective    inf_pr   inf_du lg(mu)  ||d||  lg(rg) alpha_du alpha_pr  ls
  30  2.5331533e+02 1.11e-05 9.49e+11  -1.0 1.78e+02  -5.2 1.00e+00 9.90e-01h  1
  31  1.9063017e+02 1.86e+00 4.70e+13  -1.0 1.08e+06    -  1.00e+00 5.00e-01f  2
  32  1.9211488e+02 1.85e+00 4.68e+13  -1.0 3.43e+06    -  1.11e-01 4.71e-03h  4
  33  1.9619191e+02 1.62e-01 2.38e+05  -1.0 2.79e+04  -5.7 1.00e+00 1.00e+00h  1
  34  1.9648271e+02 1.50e-03 3.62e+10  -2.5 6.91e+03  -6.2 9.62e-01 1.00e+00h  1
  35  1.9649285e+02 2.55e-06 1.02e+02  -2.5 2.50e+02  -6.6 1.00e+00 1.00e+00h  1
  36  1.8349809e+02 8.35e-01 1.62e+09  -8.6 4.84e+05    -  9.42e-01 1.00e+00f  1
  37  1.8517053e+02 6.02e-02 8.72e+08  -8.6 7.21e+03  -7.1 4.61e-01 1.00e+00h  1
  38  1.8516384e+02 1.40e-03 3.97e+05  -8.6 6.93e+02  -7.6 1.00e+00 1.00e+00h  1
  39  1.8347973e+02 3.07e-01 2.97e+04  -8.6 1.11e+05    -  9.25e-01 1.00e+00f  1
iter    objective    inf_pr   inf_du lg(mu)  ||d||  lg(rg) alpha_du alpha_pr  ls
  40  1.8458564e+02 1.58e-02 6.50e+04  -8.6 3.62e+06  -8.1 2.58e-01 6.97e-03h  4
  41  1.8412648e+02 3.06e-01 2.59e+03  -8.6 6.28e+03  -6.7 1.00e+00 1.00e+00f  1
  42  1.8531444e+02 5.16e-02 2.31e+05  -8.6 3.61e+06  -7.2 3.94e-01 8.14e-03h  4
  43  1.7624392e+02 4.41e-01 4.36e+05  -8.6 5.89e+03  -5.9 3.82e-01 1.00e+00F  1
  44  1.8347314e+02 4.09e-01 4.16e+05  -8.6 3.84e+06  -6.4 7.58e-01 7.69e-02h  2
  45  1.8347788e+02 4.09e-01 4.16e+05  -8.6 3.23e+06  -6.8 1.00e+00 4.47e-05h 12
  46  1.8347895e+02 4.09e-01 4.16e+05  -8.6 4.96e+06  -7.3 1.00e+00 2.04e-05h 13
  47r 1.8347895e+02 4.09e-01 1.00e+03  -0.4 0.00e+00  -6.9 0.00e+00 3.48e-07R 19
  48r 1.8347929e+02 3.15e-01 9.98e+02  -0.4 4.87e+03    -  3.27e-02 1.04e-03f  1
  49r 1.8347929e+02 3.15e-01 9.99e+02  -0.5 0.00e+00    -  0.00e+00 3.55e-07R 19
iter    objective    inf_pr   inf_du lg(mu)  ||d||  lg(rg) alpha_du alpha_pr  ls
  50r 1.8347992e+02 2.83e-01 9.98e+02  -0.5 6.49e+03    -  1.34e-03 1.34e-03f  1
  51r 1.8348165e+02 2.94e-01 9.95e+02  -0.5 8.88e+03    -  2.09e-02 3.01e-03f  1
  52r 1.8348165e+02 2.84e-01 9.89e+02  -0.5 5.94e+00   2.0 3.07e-02 1.40e-02f  1
  53r 1.8348766e+02 2.60e-01 9.73e+02  -0.5 5.29e+03    -  1.61e-02 1.58e-02f  1
  54r 1.8348766e+02 2.83e-01 1.02e+03  -0.5 5.02e+01   2.4 3.37e-04 3.97e-03f  1
  55r 1.8348777e+02 2.83e-01 1.03e+03  -0.5 5.45e+03    -  4.93e-03 4.53e-04f  1
  56r 1.8349099e+02 2.44e-01 1.01e+03  -0.5 5.25e+03    -  1.84e-02 1.30e-02f  1
  57r 1.8349202e+02 2.49e-01 1.00e+03  -0.5 3.99e+03    -  7.15e-03 4.13e-03f  1
  58r 1.8349663e+02 2.44e-01 9.90e+02  -0.5 3.79e+03    -  1.46e-02 2.14e-02f  1
  59r 1.8349792e+02 2.40e-01 9.53e+02  -0.5 1.05e+03    -  8.79e-02 1.87e-02f  1
iter    objective    inf_pr   inf_du lg(mu)  ||d||  lg(rg) alpha_du alpha_pr  ls
  60r 1.8350020e+02 2.18e-01 8.77e+02  -0.5 2.26e+02    -  7.41e-01 9.67e-02f  1
  61  1.7502498e+02 1.10e+01 7.65e+01  -8.6 3.97e+05    -  4.04e-01 5.53e-01F  1
  62  1.7502498e+02 2.17e+02 2.56e+08  -8.6 2.25e+11    -  9.51e-10 1.23e-09h  1
  63r 1.7502498e+02 2.17e+02 9.99e+02   2.3 0.00e+00  -5.1 0.00e+00 6.33e-12R  2
  64r 1.7502498e+02 2.02e+02 5.21e+06   2.3 9.25e+09    -  1.00e-05 1.65e-09f  1
  65r 1.7502498e+02 2.02e+02 8.18e+09   2.3 7.36e-01   6.0 5.87e-01 5.83e-01f  1
  66r 1.7502498e+02 2.02e+02 8.18e+09   2.3 5.83e-03   8.7 0.00e+00 4.77e-07R 22
  67r 1.7502498e+02 2.02e+02 1.44e+13   2.3 3.40e-05   8.2 9.91e-01 1.00e+00f  1
  68r 1.7502498e+02 2.02e+02 2.00e+16   2.3 3.52e-06  11.3 1.00e+00 1.00e+00f  1
  69r 1.7502498e+02 2.02e+02 3.30e+19   2.3 4.33e-06  14.5 1.00e+00 1.00e+00f  1
iter    objective    inf_pr   inf_du lg(mu)  ||d||  lg(rg) alpha_du alpha_pr  ls
  70r 1.7502498e+02 2.02e+02 6.75e+22   2.3 6.66e-06  17.6 1.00e+00 1.00e+00f  1
Scaling factors are invalid - setting them all to 1.
Scaling factors are invalid - setting them all to 1.
MA27BD returned iflag=-4 and requires more memory.
 Increase liw from 19240 to 38480 and la from 22500 to 46322 and factorize again.
Scaling factors are invalid - setting them all to 1.
Scaling factors are invalid - setting them all to 1.
Scaling factors are invalid - setting them all to 1.
Scaling factors are invalid - setting them all to 1.
Scaling factors are invalid - setting them all to 1.
Scaling factors are invalid - setting them all to 1.
Scaling factors are invalid - setting them all to 1.
Scaling factors are invalid - setting them all to 1.
Scaling factors are invalid - setting them all to 1.
Scaling factors are invalid - setting them all to 1.
Scaling factors are invalid - setting them all to 1.
Scaling factors are invalid - setting them all to 1.
Scaling factors are invalid - setting them all to 1.
Scaling factors are invalid - setting them all to 1.
Scaling factors are invalid - setting them all to 1.
Scaling factors are invalid - setting them all to 1.
WARNING: Problem in step computation; switching to emergency mode.
  71r 1.7502498e+02 2.02e+02 6.75e+22   2.3 6.66e-06  20.0 0.00e+00 0.00e+00R  1
Scaling factors are invalid - setting them all to 1.
Scaling factors are invalid - setting them all to 1.
Scaling factors are invalid - setting them all to 1.
Scaling factors are invalid - setting them all to 1.
Scaling factors are invalid - setting them all to 1.
Scaling factors are invalid - setting them all to 1.
Scaling factors are invalid - setting them all to 1.
Scaling factors are invalid - setting them all to 1.
Scaling factors are invalid - setting them all to 1.
Scaling factors are invalid - setting them all to 1.
Scaling factors are invalid - setting them all to 1.
Scaling factors are invalid - setting them all to 1.
Scaling factors are invalid - setting them all to 1.
Scaling factors are invalid - setting them all to 1.
WARNING: Problem in step computation; switching to emergency mode.
Restoration phase is called at point that is almost feasible,
  with constraint violation 0.000000e+00. Abort.
Restoration phase in the restoration phase failed.

Number of Iterations....: 71

                                   (scaled)                 (unscaled)
Objective...............:   1.7502498116911354e+02    1.7502498116911354e+02
Dual infeasibility......:   6.7547243814415298e+22    6.7547243814415298e+22
Constraint violation....:   2.0230834944078251e+02    2.0230834944078251e+02
Complementarity.........:   2.1690004849272418e+02    2.1690004849272418e+02
Overall NLP error.......:   8.7130223601824725e+14    6.7547243814415298e+22


Number of objective function evaluations             = 290
Number of objective gradient evaluations             = 55
Number of equality constraint evaluations            = 291
Number of inequality constraint evaluations          = 0
Number of equality constraint Jacobian evaluations   = 77
Number of inequality constraint Jacobian evaluations = 0
Number of Lagrangian Hessian evaluations             = 72
Total CPU secs in IPOPT (w/o function evaluations)   =      0.200
Total CPU secs in NLP function evaluations           =      2.241

EXIT: Restoration Failed!
